Figure: medium_4
File Number: 8
Nodes: 100
Edges: 2527
Max Generations: 1000
Population Size: 100
Mutation Rate: 0.01
Colors Used: 26
Runtime: 5.75

Generation,Average Fitness,Best Fitness
0,101.79,80
1,97.49,76
2,94.14,76
3,95.43,71
4,92.29,70
5,92.64,70
6,90.55,70
7,89.97,70
8,87.27,70
9,86.93,68
10,86.39,66
11,84.57,66
12,82.4,66
13,79.79,62
14,78.29,59
15,75.4,56
16,71.04,56
17,67.81,56
18,65.33,53
19,62.96,53
20,60.63,53
21,60.17,51
22,59.24,49
23,57.52,49
24,56.42,48
25,54.54,47
26,53.5,43
27,52.24,43
28,51.75,43
29,51.03,43
30,49.9,43
31,49.46,43
32,49.04,42
33,49.2,41
34,47.86,40
35,46.76,40
36,46.05,38
37,45.41,38
38,44.77,37
39,44.07,37
40,43.33,37
41,42.89,37
42,42.33,36
43,41.58,35
44,40.27,35
45,40.59,35
46,40.85,32
47,40.15,32
48,39.68,32
49,39.57,31
50,39.42,31
51,38.81,30
52,37.65,30
53,37.51,30
54,37.09,30
55,36.23,29
56,35.43,29
57,34.73,29
58,34.72,27
59,33.7,27
60,33.24,27
61,33.16,27
62,33.17,27
63,32.5,27
64,31.73,25
65,31.34,24
66,30.85,24
67,31.3,24
68,31.12,24
69,30.94,24
70,30.49,24
71,29.96,24
72,29.41,22
73,28.9,22
74,28.77,22
75,28.61,21
76,28.73,21
77,28.32,21
78,27.62,21
79,27.16,21
80,25.99,21
81,25.32,20
82,25.99,20
83,25.96,20
84,26.21,20
85,25.74,20
86,25.15,20
87,25.46,19
88,25.73,19
89,25.76,19
90,24.76,18
91,24.66,18
92,24.58,18
93,23.93,18
94,23.83,18
95,24.05,18
96,23.93,18
97,23.26,18
98,23.09,17
99,22.43,16
100,22.39,16
101,22.62,16
102,22.55,16
103,22.73,16
104,22.39,16
105,21.96,16
106,21.75,15
107,21.36,15
108,21.94,15
109,21.43,15
110,21.37,15
111,21.39,15
112,21.41,15
113,21.71,15
114,21.87,14
115,21.27,14
116,20.77,14
117,20.89,12
118,20.11,12
119,19.97,12
120,18.98,12
121,18.57,12
122,18.07,12
123,17.45,12
124,17.46,12
125,16.9,12
126,17.35,12
127,17.97,12
128,17.81,12
129,18.07,12
130,18.3,12
131,18.14,12
132,17.63,12
133,17.94,11
134,17.7,11
135,17.54,11
136,17.3,11
137,17.29,11
138,17.76,11
139,17.3,11
140,17.06,10
141,16.82,10
142,16.57,10
143,16.28,10
144,15.68,10
145,15.55,10
146,15.36,10
147,15.39,9
148,15.29,9
149,15.07,9
150,15.86,9
151,15.91,9
152,15.21,9
153,14.7,8
154,13.99,8
155,14.26,8
156,14.06,8
157,13.72,8
158,14.05,8
159,13.77,8
160,13.75,8
161,13.79,8
162,13.61,8
163,13.83,7
164,13.37,7
165,13.04,7
166,12.95,7
167,13.04,7
168,13.14,7
169,12.88,7
170,12.9,7
171,13.61,7
172,13.52,7
173,13.77,7
174,13.71,7
175,14.01,7
176,14.05,7
177,14.15,7
178,14.31,7
179,14.73,7
180,14.51,7
181,14.43,7
182,13.54,6
183,13.04,6
184,13.71,6
185,14.02,6
186,14.36,6
187,13.59,6
188,12.87,6
189,12.94,6
190,12.95,6
191,12.84,6
192,12.32,6
193,12.28,6
194,11.95,6
195,11.48,6
196,11.84,6
197,11.59,6
198,11.77,6
199,11.05,5
200,10.82,5
201,10.75,5
202,11.09,5
203,11.75,5
204,11.61,5
205,11.51,5
206,12.06,5
207,12.16,5
208,11.21,5
209,11.53,5
210,11.84,5
211,11.72,5
212,11.29,5
213,11.22,5
214,10.54,5
215,11.11,5
216,11.36,5
217,11.13,5
218,11.73,5
219,11.53,5
220,11.63,5
221,11.59,5
222,12.59,5
223,12.57,5
224,12.16,5
225,12.01,5
226,11.8,5
227,11.32,5
228,11.49,5
229,11.92,5
230,11.9,5
231,11.74,5
232,11.3,5
233,11.29,5
234,10.77,4
235,10.62,4
236,10.94,4
237,10.46,4
238,10.45,4
239,10.48,4
240,9.9,4
241,9.47,4
242,9.76,4
243,9.69,4
244,10.11,4
245,10.15,4
246,10.56,4
247,9.84,4
248,9.63,3
249,10.22,3
250,9.65,3
251,9.56,3
252,9.84,3
253,9.73,3
254,10.19,3
255,10.17,3
256,9.62,3
257,9.86,3
258,10.0,3
259,10.1,3
260,9.87,3
261,9.59,3
262,8.82,3
263,8.9,3
264,9.13,3
265,9.34,3
266,9.69,3
267,10.69,3
268,10.73,3
269,10.94,3
270,10.8,3
271,11.06,3
272,10.52,3
273,9.91,3
274,9.11,3
275,9.05,3
276,8.74,3
277,8.87,3
278,8.84,3
279,9.09,3
280,8.88,3
281,9.08,3
282,9.01,3
283,9.21,3
284,9.41,3
285,9.34,3
286,8.78,2
287,8.69,2
288,9.06,2
289,8.8,2
290,8.95,2
291,9.37,2
292,8.78,2
293,7.95,2
294,8.05,2
295,7.79,2
296,7.43,2
297,7.88,2
298,7.58,2
299,7.8,2
300,7.59,2
301,7.94,2
302,7.36,2
303,7.39,2
304,7.62,2
305,7.33,2
306,7.87,2
307,7.97,2
308,7.98,2
309,8.03,2
310,8.05,2
311,7.93,2
312,7.89,2
313,7.9,2
314,8.15,2
315,8.64,2
316,8.66,2
317,8.84,2
318,8.4,2
319,8.4,2
320,8.08,2
321,7.96,2
322,8.03,2
323,8.65,2
324,8.72,2
325,8.6,2
326,9.03,2
327,8.82,2
328,8.39,2
329,7.55,2
330,7.47,2
331,7.91,2
332,7.64,2
333,8.07,2
334,8.2,2
335,8.99,2
336,8.43,2
337,8.06,2
338,8.23,2
339,7.95,2
340,7.85,2
341,7.0,2
342,7.11,2
343,7.31,2
344,7.75,2
345,7.42,2
346,7.69,2
347,7.96,2
348,7.84,2
349,8.21,2
350,8.74,2
351,9.53,2
352,8.72,2
353,8.9,2
354,8.28,2
355,7.98,2
356,8.11,2
357,8.04,2
358,8.35,2
359,8.36,1
360,8.54,1
361,7.55,1
362,7.99,1
363,8.13,1
364,7.95,1
365,7.49,1
366,7.84,1
367,7.97,1
368,7.78,1
369,7.74,1
370,7.8,1
371,7.97,1
372,7.35,1
373,7.02,1
374,7.18,1
375,6.66,1
376,6.71,1
377,7.02,1
378,6.72,1
379,6.89,1
380,6.69,1
381,6.22,1
382,6.3,1
383,6.51,1
384,6.15,1
385,5.71,1
386,5.9,1
387,6.04,1
388,6.55,1
389,6.8,1
390,6.71,1
391,6.64,1
392,6.14,1
393,6.58,1
394,6.47,1
395,6.62,1
396,6.2,1
397,6.49,1
398,6.92,1
399,6.69,1
400,6.97,1
401,7.11,1
402,7.1,1
403,6.89,1
404,7.65,1
405,7.56,1
406,7.5,1
407,7.98,1
408,7.89,1
409,7.39,1
410,7.52,1
411,7.69,1
412,7.15,1
413,7.55,1
414,7.74,1
415,8.27,1
416,7.97,1
417,7.83,1
418,7.52,1
419,6.93,1
420,7.02,1
421,7.25,1
422,7.01,1
423,6.95,1
424,6.86,1
425,6.93,1
426,6.62,1
427,6.64,1
428,6.12,1
429,6.16,1
430,6.18,1
431,6.19,1
432,6.3,1
433,6.32,1
434,6.44,1
435,6.13,1
436,6.42,1
437,6.76,1
438,7.14,1
439,6.5,1
440,6.7,1
441,7.24,1
442,7.58,1
443,7.3,1
444,6.74,1
445,6.63,1
446,6.81,1
447,6.63,1
448,6.25,1
449,6.08,1
450,6.45,1
451,6.35,1
452,6.45,1
453,6.26,1
454,6.64,1
455,7.33,1
456,7.34,1
457,7.08,1
458,7.06,1
459,6.7,1
460,6.81,1
461,6.68,1
462,5.99,1
463,6.49,1
464,6.7,1
465,7.02,1
466,6.59,1
467,6.76,1
468,6.42,1
469,6.56,1
470,6.63,1
471,7.45,1
472,6.89,1
473,6.62,1
474,6.72,1
475,6.65,1
476,7.39,1
477,7.95,1
478,7.29,1
479,7.31,1
480,7.39,1
481,7.46,1
482,7.27,1
483,7.05,1
484,6.84,1
485,7.01,1
486,6.89,1
487,6.49,1
488,6.73,1
489,6.92,1
490,6.69,1
491,7.3,1
492,7.64,1
493,7.14,1
494,7.26,1
495,7.11,1
496,6.84,1
497,6.43,1
498,6.28,1
499,6.54,1
500,6.15,1
501,6.45,1
502,6.55,1
503,6.47,1
504,5.73,1
505,5.55,1
506,5.84,1
507,6.19,1
508,6.79,1
509,6.8,1
510,6.67,1
511,6.15,1
512,6.51,1
513,6.83,1
514,7.12,1
515,7.65,1
516,7.73,1
517,7.3,1
518,7.32,1
519,7.12,1
520,6.97,1
521,6.71,1
522,6.35,1
523,6.49,1
524,6.72,1
525,6.63,1
526,6.15,1
527,6.83,1
528,6.61,1
529,6.31,1
530,6.37,1
531,6.42,1
532,6.31,1
533,6.36,1
534,6.69,1
535,6.08,1
536,6.32,1
537,6.89,1
538,6.49,1
539,6.77,1
540,7.13,1
541,7.27,1
542,7.59,1
543,7.34,1
544,7.3,1
545,6.86,1
546,7.17,1
547,7.59,1
548,7.81,1
549,8.01,1
550,8.11,1
551,8.03,1
552,7.83,1
553,7.81,1
554,7.58,1
555,7.5,1
556,7.23,1
557,6.89,1
558,6.61,1
559,7.15,1
560,7.24,1
561,6.84,1
562,6.81,1
563,6.96,1
564,7.13,1
565,6.99,1
566,7.23,1
567,7.26,1
568,7.52,1
569,7.25,1
570,6.8,1
571,7.23,1
572,7.2,1
573,7.4,1
574,7.23,1
575,7.39,1
576,7.57,1
577,8.09,1
578,8.23,1
579,8.14,1
580,8.26,1
581,8.56,1
582,8.14,1
583,7.96,1
584,7.69,1
585,8.03,1
586,8.22,1
587,8.39,1
588,8.18,1
589,8.33,1
590,7.87,1
591,7.41,1
592,7.35,1
593,7.03,1
594,7.39,1
595,7.61,1
596,7.31,1
597,7.18,1
598,7.11,1
599,7.22,1
600,6.91,1
601,7.17,1
602,6.96,1
603,6.43,1
604,5.99,1
605,6.57,1
606,6.54,1
607,6.4,1
608,6.52,1
609,6.82,1
610,6.09,1
611,5.93,1
612,5.05,1
613,5.27,1
614,5.62,1
615,5.64,1
616,5.53,1
617,5.88,1
618,6.32,1
619,6.22,1
620,6.71,1
621,6.19,1
622,5.96,1
623,6.01,1
624,5.19,1
625,5.86,1
626,6.3,1
627,6.32,1
628,6.45,1
629,6.57,1
630,6.06,1
631,6.64,1
632,5.89,1
633,7.0,1
634,6.56,1
635,6.32,1
636,6.01,1
637,5.94,1
638,5.68,1
639,5.68,1
640,5.51,1
641,5.6,1
642,5.52,1
643,5.68,1
644,6.03,1
645,5.76,1
646,6.07,1
647,6.06,1
648,6.19,1
649,6.41,1
650,6.66,1
651,6.68,1
652,6.38,1
653,6.42,1
654,6.64,1
655,6.91,1
656,7.08,1
657,6.86,1
658,6.86,1
659,6.58,1
660,6.65,1
661,6.45,1
662,5.77,1
663,6.11,1
664,6.37,1
665,5.78,1
666,5.89,1
667,5.82,1
668,6.22,1
669,6.54,1
670,7.08,1
671,7.66,1
672,7.01,1
673,7.62,1
674,7.25,1
675,6.88,1
676,7.07,1
677,7.57,1
678,7.21,1
679,7.12,1
680,7.74,1
681,7.94,1
682,7.78,1
683,7.16,1
684,6.54,1
685,6.64,1
686,6.94,1
687,6.36,1
688,6.85,1
689,6.8,1
690,6.39,1
691,6.81,1
692,6.57,1
693,6.55,1
694,6.44,1
695,6.83,1
696,7.2,1
697,7.31,1
698,6.55,1
699,7.12,1
700,6.78,1
701,6.49,1
702,6.28,1
703,6.53,1
704,6.05,1
705,6.31,1
706,6.33,1
707,6.57,1
708,7.11,1
709,7.56,1
710,7.18,1
711,7.62,1
712,8.42,1
713,8.64,1
714,8.43,1
715,8.38,1
716,8.42,1
717,7.37,1
718,7.34,1
719,7.82,1
720,7.29,1
721,7.94,1
722,7.5,1
723,7.3,1
724,6.41,1
725,7.2,1
726,7.63,1
727,7.54,1
728,7.13,1
729,6.9,1
730,6.8,1
731,7.16,1
732,6.84,1
733,6.83,1
734,7.13,1
735,7.85,1
736,8.01,1
737,8.3,1
738,7.87,1
739,7.78,1
740,7.41,1
741,7.17,1
742,6.34,1
743,6.69,1
744,6.75,1
745,6.97,1
746,6.85,1
747,7.38,1
748,7.33,1
749,7.06,1
750,6.54,1
751,6.59,1
752,7.03,1
753,6.8,1
754,6.84,1
755,6.59,1
756,7.08,1
757,6.99,1
758,7.3,1
759,7.42,1
760,7.87,1
761,7.8,1
762,7.95,1
763,7.35,1
764,7.39,1
765,7.37,1
766,6.9,1
767,6.52,1
768,6.92,1
769,6.84,1
770,6.15,1
771,6.36,1
772,7.2,1
773,7.29,1
774,7.17,1
775,7.16,1
776,7.32,1
777,7.59,1
778,7.47,1
779,6.93,1
780,6.9,1
781,7.55,1
782,7.03,1
783,6.66,1
784,6.36,1
785,6.72,1
786,7.07,1
787,6.65,1
788,6.18,1
789,5.8,1
790,5.49,1
791,6.16,1
792,6.27,1
793,6.68,1
794,6.65,1
795,7.0,1
796,6.88,1
797,6.92,1
798,6.91,1
799,7.47,1
800,7.05,1
801,7.72,1
802,7.49,1
803,7.83,1
804,7.35,1
805,7.2,1
806,7.09,1
807,6.98,1
808,6.98,1
809,7.06,1
810,6.95,1
811,7.41,1
812,7.76,1
813,7.99,1
814,7.96,1
815,7.88,1
816,7.86,1
817,7.62,1
818,7.41,1
819,7.28,1
820,7.22,1
821,7.22,1
822,6.84,1
823,7.23,1
824,7.44,1
825,7.75,1
826,7.23,1
827,7.36,1
828,7.38,1
829,6.93,1
830,6.9,1
831,7.2,1
832,6.94,1
833,7.29,1
834,6.83,1
835,7.07,1
836,7.75,1
837,8.18,1
838,7.56,1
839,7.76,1
840,6.82,1
841,7.41,1
842,6.99,1
843,6.99,1
844,7.13,1
845,6.75,1
846,6.83,1
847,7.28,1
848,7.35,1
849,7.3,1
850,7.06,1
851,7.09,1
852,6.68,1
853,7.0,1
854,6.88,1
855,6.79,1
856,6.58,1
857,7.06,1
858,6.78,1
859,6.46,1
860,7.09,1
861,7.08,1
862,7.05,1
863,6.96,1
864,7.35,1
865,7.48,1
866,7.03,1
867,7.12,1
868,6.95,1
869,6.84,1
870,5.76,1
871,5.54,1
872,5.09,1
873,5.47,1
874,5.87,1
875,6.68,1
876,6.73,1
877,6.06,1
878,6.19,1
879,6.14,1
880,6.4,1
881,6.44,1
882,5.68,1
883,5.8,1
884,6.75,1
885,6.87,1
886,7.09,1
887,7.24,1
888,7.19,1
889,6.81,1
890,7.12,1
891,6.56,1
892,5.95,1
893,6.38,1
894,7.13,1
895,7.46,1
896,7.56,1
897,7.45,1
898,7.23,1
899,6.84,1
900,6.54,1
901,6.64,1
902,6.98,1
903,6.52,1
904,6.69,1
905,6.44,1
906,6.09,1
907,6.09,1
908,6.48,1
909,6.58,1
910,6.97,1
911,6.78,1
912,6.5,1
913,6.95,1
914,6.65,1
915,6.55,1
916,7.05,1
917,6.69,1
918,6.49,1
919,6.81,1
920,6.67,1
921,7.01,1
922,7.43,1
923,7.1,1
924,6.7,1
925,5.79,1
926,5.72,1
927,6.26,1
928,6.73,1
929,6.93,1
930,6.61,1
931,6.59,1
932,6.38,1
933,5.88,1
934,5.84,1
935,6.09,1
936,5.76,1
937,5.94,1
938,6.55,1
939,6.59,1
940,6.7,1
941,6.93,1
942,6.8,1
943,6.57,1
944,6.65,1
945,6.84,1
946,7.04,1
947,7.13,1
948,7.42,1
949,7.14,1
950,7.05,1
951,7.24,1
952,7.04,1
953,6.79,1
954,7.08,1
955,7.34,1
956,6.42,1
957,6.44,1
958,5.74,1
959,6.16,1
960,5.99,1
961,6.41,1
962,7.07,1
963,6.83,1
964,7.08,1
965,7.32,1
966,6.73,1
967,7.1,1
968,7.15,1
969,7.33,1
970,7.01,1
971,7.17,1
972,7.39,1
973,6.21,1
974,7.01,1
975,6.97,1
976,6.99,1
977,6.72,1
978,6.95,1
979,7.3,1
980,7.48,1
981,7.04,1
982,6.57,1
983,6.25,1
984,5.71,1
985,5.64,1
986,5.37,1
987,5.6,1
988,5.59,1
989,6.1,1
990,6.04,1
991,6.16,1
992,6.63,1
993,6.04,1
994,6.18,1
995,6.32,1
996,6.14,1
997,6.41,1
998,6.02,1
999,6.13,1
